p cnf 13 26
13 -12 -1 2 -3 7 10 -8 -9 0
5 7 8 13 -1 -3 -6 9 -12 0
-13 -10 6 12 0
-1 -11 -9 -2 -8 5 0
11 12 -1 -10 5 3 2 0
-6 1 -12 9 13 4 3 0
9 3 8 -6 1 5 2 11 0
-9 4 -7 -11 12 -1 10 8 2 0
-11 -2 6 9 12 -1 -10 -13 0
5 -2 -4 8 -1 -6 12 -13 0
7 -10 -1 6 0
-12 4 -1 -2 9 -11 0
11 4 -2 0
4 2 -12 -9 -6 -8 10 -11 -3 0
-8 -2 7 -12 0
-2 3 10 9 11 -13 0
8 1 13 0
7 1 -6 -3 -11 0
-2 -11 1 -5 7 0
3 -7 -5 -4 -12 10 -2 0
2 8 11 -4 -12 3 -10 6 0
12 -2 -10 3 -4 -7 11 -8 0
-2 10 7 -11 -13 0
7 2 3 0
13 -7 1 4 -12 0
-2 12 4 -1 9 -6 -8 5 0
